8685
14, 52, 11, 26, 47, 46, 25, 4, 43, 10, 9, 8, 41, 19, 45, 32, 1, 22, 18, 31, 3, 17, 21, 42, 2, 7, 30, 23, 20, 50, 29, 16, 44, 34, 35, 49, 36, 39, 37, 40, 38, 24, 48, 15, 5, 6, 33, 51, 12, 28, 27, 13
